4500
37
1 1
3 2
4 3
7 4
10 5
22 6
28 7
30 8
40 9
52 10
55 11
60 12
70 13
88 15
103 20
114 22
130 28
137 34
149 55
166 60
173 72
200 91
210 100
220 110
240 122
270 140
280 150
299 155
300 170
422 187
504 210
651 253
767 304
800 350
944 411
1050 498
2132 930